Traveling Salesman Problem/TSP_generados/Aleatorio1621104650_19.tsp
NAME: Aleatorio1621104650_19.tsp
COMMENT: Randomly generated scenario
TYPE: TSP
DIMENSION: 19
EDGE_WEIGHT_TYPE: ATT
NODE_COORD_SECTION
1 1.2 5.05
2 32.96 35.44
3 17.61 14.81
4 13.07 0.91
5 41.04 46.79
6 40.37 4.63
7 19.06 32.75
8 13.4 5.61
9 21.16 37.56
10 31.6 12.83
11 35.29 46.4
12 9.45 2.13
13 35.52 7.5
14 26.9 7.68
15 28.23 9.22
16 19.85 3.43
17 24.9 24.74
18 30.26 7.45
19 10.53 5.38
