Traveling Salesman Problem/TSP_generados/Aleatorio1621104650_19.opt.tour
NAME: Aleatorio1621104650_19.opt.tour
COMMENT: Optimal solution for Aleatorio1621104650_19 (164.33887985597923)
TYPE: TOUR
DIMENSION: 19
TOUR_SECTION
1 12 4 16 14 15 18 6 13 10 2 5 11 9 7 17 3 8 19
-1
EOF
